VER
1

OBJSENSE
MIN

VAR
3 1
L+ 3

INT
3
0
1
2

CON
2 1
L+ 2

OBJACOORD
3
0 1.000000
1 1.000000
2 1.000000

ACOORD
6
0 0 1.000000
0 1 1.000000
0 2 1.000000
1 0 -1.000000
1 1 -1.000000
1 2 -1.000000

BCOORD
2
0 -1.000000
1 1.000000

PSDVARRANK1
0

PSDCONRANK1
0

DCOORD
0

HCOORD
0

FCOORD
0

OBJFCOORD
0

PSDCON
0

PSDVAR
0

